p cnf 45 125
a 27 21 0
e 1 2 3 4 5 6 7 8 9 10 11 12 13 14 15 16 17 18 19 20 22 23 24 25 26 28 29 30 31 32 33 34 35 36 37 38 39 40 41 42 43 44 45 0
-1 -2 -3 0
1 2 -3 0
-1 2 3 0
1 -2 3 0
5 -4 0
5 4 0
-6 3 0
-6 -5 0
-3 5 6 0
-8 -7 0
-8 2 0
7 -2 8 0
9 6 0
9 8 0
-6 -8 -9 0
-11 2 0
-11 10 0
-2 -10 11 0
-9 -11 -12 0
9 11 -12 0
-9 11 12 0
9 -11 12 0
14 -1 0
14 -13 0
1 13 -14 0
15 7 0
15 14 0
-7 -14 -15 0
-16 15 0
-16 14 0
-15 -14 16 0
2 1 -17 0
-2 -1 -17 0
2 -1 17 0
-2 1 17 0
19 17 0
19 18 0
-17 -18 -19 0
7 -19 -20 0
-7 19 -20 0
7 19 20 0
-7 -19 20 0
21 16 0
21 -20 0
-16 20 -21 0
-2 -4 -22 0
2 4 -22 0
-2 4 22 0
2 -4 22 0
23 18 0
23 -22 0
-18 22 -23 0
24 22 -25 0
-24 -22 -25 0
24 -22 25 0
-24 22 25 0
13 -4 -26 0
-13 4 -26 0
13 4 26 0
-13 -4 26 0
27 -25 0
27 -26 0
25 26 -27 0
-28 23 0
-28 27 0
-23 -27 28 0
14 -13 -29 0
-14 13 -29 0
14 13 29 0
-14 -13 29 0
-30 -28 0
-30 29 0
28 -29 30 0
31 21 0
31 -30 0
-21 30 -31 0
32 12 0
32 31 0
-12 -31 -32 0
-34 33 0
-34 -10 0
-33 10 34 0
36 -33 0
36 -2 0
33 2 -36 0
37 -19 0
37 36 0
19 -36 -37 0
-38 -35 0
-38 -37 0
35 37 38 0
39 34 0
39 38 0
-34 -38 -39 0
1 -7 -40 0
-1 7 -40 0
1 7 40 0
-1 -7 40 0
-41 37 0
-41 19 0
-37 -19 41 0
42 1 0
42 41 0
-1 -41 -42 0
-43 40 0
-43 -42 0
-40 42 43 0
-44 39 0
-44 43 0
-39 -43 44 0
45 -32 0
45 44 0
32 -44 -45 0
-29 23 25 -32 10 -30 0
21 32 -27 8 13 -6 0
12 10 19 -41 42 0
-24 -15 27 33 18 20 -6 0
39 37 0
11 7 26 -20 -2 27 0
11 -15 -41 -43 2 0
-43 -18 -29 -16 -40 0
-19 39 -16 -23 0
45 40 32 42 -16 24 0
-41 16 38 20 37 2 0
45 0
